p edge 150 3353
e 1 3
e 1 8
e 1 13
e 1 17
e 1 20
e 1 21
e 1 23
e 1 25
e 1 32
e 1 37
e 1 40
e 1 41
e 1 45
e 1 48
e 1 50
e 1 51
e 1 53
e 1 56
e 1 57
e 1 58
e 1 61
e 1 62
e 1 63
e 1 66
e 1 70
e 1 82
e 1 86
e 1 90
e 1 100
e 1 103
e 1 105
e 1 108
e 1 113
e 1 115
e 1 117
e 1 120
e 1 121
e 1 132
e 1 134
e 1 136
e 1 141
e 1 144
e 1 147
e 2 4
e 2 5
e 2 6
e 2 8
e 2 9
e 2 11
e 2 19
e 2 25
e 2 27
e 2 28
e 2 30
e 2 31
e 2 35
e 2 37
e 2 52
e 2 54
e 2 57
e 2 62
e 2 65
e 2 66
e 2 67
e 2 69
e 2 76
e 2 77
e 2 78
e 2 79
e 2 80
e 2 81
e 2 89
e 2 90
e 2 91
e 2 95
e 2 96
e 2 100
e 2 112
e 2 117
e 2 120
e 2 122
e 2 125
e 2 127
e 2 129
e 2 131
e 2 132
e 2 134
e 2 136
e 2 139
e 2 143
e 2 144
e 2 147
e 3 12
e 3 14
e 3 15
e 3 19
e 3 21
e 3 22
e 3 23
e 3 25
e 3 26
e 3 27
e 3 28
e 3 35
e 3 36
e 3 40
e 3 42
e 3 45
e 3 48
e 3 52
e 3 59
e 3 60
e 3 66
e 3 72
e 3 74
e 3 80
e 3 82
e 3 88
e 3 91
e 3 97
e 3 104
e 3 107
e 3 108
e 3 109
e 3 111
e 3 112
e 3 114
e 3 117
e 3 119
e 3 120
e 3 121
e 3 125
e 3 126
e 3 134
e 3 135
e 3 137
e 3 138
e 3 139
e 3 141
e 3 146
e 3 150
e 4 6
e 4 14
e 4 18
e 4 22
e 4 30
e 4 34
e 4 47
e 4 48
e 4 55
e 4 56
e 4 59
e 4 62
e 4 67
e 4 86
e 4 89
e 4 91
e 4 94
e 4 97
e 4 104
e 4 107
e 4 110
e 4 111
e 4 112
e 4 114
e 4 121
e 4 124
e 4 125
e 4 126
e 4 128
e 4 131
e 4 133
e 4 135
e 4 137
e 4 150
e 5 21
e 5 27
e 5 28
e 5 29
e 5 36
e 5 39
e 5 43
e 5 47
e 5 55
e 5 62
e 5 63
e 5 64
e 5 65
e 5 66
e 5 68
e 5 73
e 5 78
e 5 79
e 5 80
e 5 81
e 5 83
e 5 89
e 5 90
e 5 94
e 5 95
e 5 96
e 5 103
e 5 104
e 5 106
e 5 107
e 5 109
e 5 110
e 5 114
e 5 118
e 5 120
e 5 124
e 5 129
e 5 131
e 5 142
e 5 145
e 5 146
e 6 10
e 6 13
e 6 21
e 6 23
e 6 25
e 6 27
e 6 28
e 6 29
e 6 30
e 6 32
e 6 33
e 6 36
e 6 38
e 6 39
e 6 41
e 6 42
e 6 44
e 6 51
e 6 52
e 6 54
e 6 56
e 6 64
e 6 65
e 6 67
e 6 68
e 6 71
e 6 74
e 6 76
e 6 78
e 6 80
e 6 81
e 6 82
e 6 84
e 6 86
e 6 90
e 6 97
e 6 98
e 6 100
e 6 103
e 6 104
e 6 105
e 6 107
e 6 111
e 6 114
e 6 115
e 6 116
e 6 117
e 6 119
e 6 123
e 6 131
e 6 134
e 6 143
e 6 147
e 6 150
e 7 12
e 7 15
e 7 19
e 7 25
e 7 38
e 7 41
e 7 42
e 7 45
e 7 57
e 7 61
e 7 66
e 7 67
e 7 72
e 7 76
e 7 80
e 7 81
e 7 82
e 7 86
e 7 88
e 7 89
e 7 96
e 7 98
e 7 100
e 7 102
e 7 104
e 7 106
e 7 109
e 7 110
e 7 115
e 7 117
e 7 120
e 7 121
e 7 122
e 7 124
e 7 127
e 7 131
e 7 133
e 7 135
e 7 137
e 7 143
e 7 145
e 7 148
e 7 150
e 8 13
e 8 16
e 8 21
e 8 26
e 8 27
e 8 30
e 8 32
e 8 34
e 8 36
e 8 40
e 8 48
e 8 50
e 8 52
e 8 54
e 8 57
e 8 60
e 8 63
e 8 66
e 8 73
e 8 75
e 8 80
e 8 81
e 8 82
e 8 84
e 8 85
e 8 86
e 8 91
e 8 92
e 8 93
e 8 96
e 8 103
e 8 106
e 8 110
e 8 114
e 8 117
e 8 119
e 8 121
e 8 124
e 8 128
e 8 129
e 8 133
e 8 134
e 8 135
e 8 140
e 8 141
e 8 144
e 8 147
e 8 149
e 8 150
e 9 10
e 9 11
e 9 13
e 9 14
e 9 15
e 9 22
e 9 24
e 9 27
e 9 31
e 9 32
e 9 33
e 9 36
e 9 39
e 9 41
e 9 42
e 9 45
e 9 48
e 9 51
e 9 52
e 9 58
e 9 66
e 9 67
e 9 74
e 9 84
e 9 86
e 9 87
e 9 88
e 9 94
e 9 97
e 9 99
e 9 102
e 9 105
e 9 107
e 9 108
e 9 111
e 9 116
e 9 122
e 9 125
e 9 126
e 9 128
e 9 131
e 9 133
e 9 139
e 9 143
e 9 144
e 9 146
e 9 148
e 10 16
e 10 23
e 10 30
e 10 32
e 10 34
e 10 36
e 10 37
e 10 40
e 10 42
e 10 45
e 10 46
e 10 47
e 10 52
e 10 53
e 10 57
e 10 58
e 10 59
e 10 60
e 10 66
e 10 72
e 10 73
e 10 78
e 10 81
e 10 82
e 10 83
e 10 92
e 10 97
e 10 98
e 10 99
e 10 100
e 10 101
e 10 102
e 10 106
e 10 107
e 10 113
e 10 121
e 10 127
e 10 128
e 10 131
e 10 132
e 10 136
e 10 141
e 10 146
e 10 147
e 10 148
e 11 13
e 11 15
e 11 16
e 11 17
e 11 18
e 11 19
e 11 26
e 11 29
e 11 33
e 11 38
e 11 39
e 11 42
e 11 45
e 11 46
e 11 49
e 11 50
e 11 57
e 11 62
e 11 65
e 11 68
e 11 70
e 11 72
e 11 73
e 11 83
e 11 84
e 11 85
e 11 88
e 11 89
e 11 93
e 11 100
e 11 101
e 11 102
e 11 103
e 11 106
e 11 111
e 11 112
e 11 117
e 11 128
e 11 137
e 11 141
e 11 143
e 12 13
e 12 14
e 12 15
e 12 16
e 12 28
e 12 36
e 12 38
e 12 42
e 12 44
e 12 45
e 12 46
e 12 51
e 12 52
e 12 54
e 12 55
e 12 57
e 12 58
e 12 61
e 12 64
e 12 70
e 12 78
e 12 79
e 12 82
e 12 85
e 12 86
e 12 91
e 12 93
e 12 101
e 12 102
e 12 113
e 12 115
e 12 120
e 12 128
e 12 130
e 13 18
e 13 20
e 13 21
e 13 28
e 13 30
e 13 38
e 13 39
e 13 43
e 13 48
e 13 51
e 13 53
e 13 55
e 13 57
e 13 65
e 13 72
e 13 76
e 13 78
e 13 81
e 13 84
e 13 86
e 13 90
e 13 92
e 13 93
e 13 94
e 13 96
e 13 98
e 13 103
e 13 106
e 13 109
e 13 111
e 13 114
e 13 119
e 13 121
e 13 122
e 13 125
e 13 130
e 13 131
e 13 133
e 13 134
e 13 144
e 13 145
e 13 150
e 14 16
e 14 19
e 14 20
e 14 23
e 14 25
e 14 28
e 14 29
e 14 33
e 14 34
e 14 38
e 14 44
e 14 45
e 14 48
e 14 51
e 14 52
e 14 58
e 14 59
e 14 61
e 14 62
e 14 63
e 14 67
e 14 76
e 14 79
e 14 87
e 14 88
e 14 94
e 14 95
e 14 97
e 14 102
e 14 107
e 14 108
e 14 111
e 14 117
e 14 118
e 14 127
e 14 128
e 14 130
e 14 140
e 14 141
e 14 145
e 14 146
e 14 147
e 14 148
e 15 16
e 15 19
e 15 23
e 15 27
e 15 28
e 15 30
e 15 35
e 15 36
e 15 38
e 15 48
e 15 49
e 15 50
e 15 55
e 15 59
e 15 64
e 15 65
e 15 66
e 15 67
e 15 70
e 15 71
e 15 77
e 15 82
e 15 83
e 15 86
e 15 87
e 15 88
e 15 89
e 15 90
e 15 97
e 15 98
e 15 99
e 15 108
e 15 109
e 15 111
e 15 112
e 15 123
e 15 126
e 15 129
e 15 136
e 15 138
e 15 139
e 15 144
e 15 145
e 15 146
e 15 150
e 16 18
e 16 19
e 16 21
e 16 22
e 16 28
e 16 31
e 16 32
e 16 39
e 16 42
e 16 43
e 16 45
e 16 46
e 16 47
e 16 56
e 16 57
e 16 62
e 16 72
e 16 79
e 16 82
e 16 83
e 16 84
e 16 92
e 16 96
e 16 98
e 16 100
e 16 103
e 16 108
e 16 114
e 16 116
e 16 117
e 16 118
e 16 123
e 16 125
e 16 126
e 16 131
e 16 134
e 16 141
e 16 143
e 16 149
e 17 29
e 17 33
e 17 34
e 17 36
e 17 39
e 17 41
e 17 46
e 17 47
e 17 51
e 17 52
e 17 54
e 17 56
e 17 58
e 17 60
e 17 64
e 17 67
e 17 71
e 17 75
e 17 76
e 17 84
e 17 87
e 17 88
e 17 89
e 17 90
e 17 91
e 17 93
e 17 95
e 17 98
e 17 100
e 17 103
e 17 108
e 17 113
e 17 115
e 17 117
e 17 118
e 17 120
e 17 121
e 17 126
e 17 127
e 17 128
e 17 148
e 17 149
e 18 19
e 18 20
e 18 21
e 18 24
e 18 28
e 18 29
e 18 31
e 18 38
e 18 40
e 18 56
e 18 63
e 18 66
e 18 68
e 18 69
e 18 70
e 18 71
e 18 73
e 18 74
e 18 79
e 18 81
e 18 82
e 18 86
e 18 91
e 18 93
e 18 96
e 18 98
e 18 99
e 18 106
e 18 110
e 18 112
e 18 119
e 18 125
e 18 130
e 18 141
e 18 144
e 18 146
e 18 149
e 19 21
e 19 27
e 19 31
e 19 32
e 19 39
e 19 40
e 19 41
e 19 43
e 19 46
e 19 54
e 19 62
e 19 67
e 19 75
e 19 77
e 19 79
e 19 83
e 19 87
e 19 88
e 19 89
e 19 94
e 19 95
e 19 97
e 19 98
e 19 105
e 19 107
e 19 109
e 19 120
e 19 126
e 19 130
e 19 132
e 19 134
e 19 139
e 19 142
e 19 145
e 19 148
e 19 149
e 20 22
e 20 27
e 20 42
e 20 43
e 20 44
e 20 47
e 20 54
e 20 57
e 20 65
e 20 66
e 20 69
e 20 72
e 20 74
e 20 78
e 20 81
e 20 87
e 20 93
e 20 100
e 20 104
e 20 107
e 20 111
e 20 114
e 20 125
e 20 127
e 20 128
e 20 130
e 20 139
e 20 149
e 21 23
e 21 29
e 21 39
e 21 41
e 21 50
e 21 51
e 21 52
e 21 56
e 21 57
e 21 60
e 21 63
e 21 64
e 21 66
e 21 69
e 21 73
e 21 74
e 21 78
e 21 82
e 21 89
e 21 93
e 21 96
e 21 103
e 21 105
e 21 114
e 21 115
e 21 117
e 21 120
e 21 126
e 21 127
e 21 129
e 21 134
e 21 136
e 21 141
e 21 142
e 21 145
e 22 26
e 22 27
e 22 29
e 22 32
e 22 37
e 22 39
e 22 41
e 22 45
e 22 52
e 22 63
e 22 69
e 22 70
e 22 71
e 22 78
e 22 79
e 22 80
e 22 82
e 22 85
e 22 87
e 22 88
e 22 95
e 22 98
e 22 101
e 22 103
e 22 107
e 22 111
e 22 114
e 22 118
e 22 120
e 22 127
e 22 128
e 22 132
e 22 141
e 22 143
e 22 149
e 22 150
e 23 27
e 23 34
e 23 35
e 23 36
e 23 39
e 23 44
e 23 45
e 23 46
e 23 51
e 23 53
e 23 62
e 23 67
e 23 68
e 23 70
e 23 73
e 23 75
e 23 80
e 23 91
e 23 94
e 23 96
e 23 100
e 23 102
e 23 103
e 23 104
e 23 120
e 23 122
e 23 125
e 23 127
e 23 134
e 23 140
e 23 141
e 23 142
e 24 27
e 24 29
e 24 30
e 24 34
e 24 36
e 24 40
e 24 48
e 24 52
e 24 53
e 24 54
e 24 59
e 24 78
e 24 79
e 24 81
e 24 84
e 24 85
e 24 93
e 24 95
e 24 102
e 24 107
e 24 109
e 24 121
e 24 123
e 24 127
e 24 128
e 24 131
e 24 133
e 24 134
e 24 135
e 24 136
e 24 137
e 24 138
e 24 142
e 24 147
e 24 148
e 24 149
e 25 27
e 25 34
e 25 35
e 25 36
e 25 41
e 25 42
e 25 44
e 25 46
e 25 47
e 25 48
e 25 55
e 25 60
e 25 72
e 25 73
e 25 75
e 25 76
e 25 77
e 25 79
e 25 82
e 25 86
e 25 91
e 25 108
e 25 110
e 25 114
e 25 117
e 25 120
e 25 126
e 25 127
e 25 128
e 25 130
e 25 131
e 25 135
e 25 138
e 25 140
e 25 143
e 25 144
e 25 146
e 25 147
e 25 149
e 25 150
e 26 31
e 26 36
e 26 39
e 26 40
e 26 47
e 26 50
e 26 51
e 26 54
e 26 58
e 26 60
e 26 74
e 26 79
e 26 84
e 26 86
e 26 89
e 26 91
e 26 93
e 26 99
e 26 101
e 26 102
e 26 112
e 26 117
e 26 119
e 26 120
e 26 127
e 26 131
e 26 135
e 26 136
e 26 142
e 26 146
e 26 147
e 26 148
e 27 30
e 27 37
e 27 39
e 27 41
e 27 47
e 27 48
e 27 50
e 27 53
e 27 55
e 27 58
e 27 59
e 27 63
e 27 64
e 27 66
e 27 71
e 27 72
e 27 73
e 27 78
e 27 79
e 27 83
e 27 86
e 27 94
e 27 96
e 27 97
e 27 98
e 27 99
e 27 102
e 27 105
e 27 107
e 27 115
e 27 122
e 27 125
e 27 127
e 27 129
e 27 132
e 27 133
e 27 135
e 27 136
e 27 138
e 27 142
e 27 144
e 27 146
e 27 148
e 27 150
e 28 30
e 28 33
e 28 34
e 28 35
e 28 38
e 28 40
e 28 42
e 28 46
e 28 54
e 28 57
e 28 58
e 28 69
e 28 70
e 28 71
e 28 75
e 28 78
e 28 79
e 28 89
e 28 90
e 28 91
e 28 94
e 28 95
e 28 96
e 28 100
e 28 102
e 28 104
e 28 105
e 28 110
e 28 111
e 28 113
e 28 115
e 28 116
e 28 121
e 28 125
e 28 129
e 28 130
e 28 131
e 28 134
e 28 137
e 28 139
e 28 148
e 29 31
e 29 32
e 29 40
e 29 42
e 29 45
e 29 46
e 29 53
e 29 54
e 29 55
e 29 58
e 29 61
e 29 62
e 29 64
e 29 65
e 29 66
e 29 69
e 29 70
e 29 72
e 29 84
e 29 85
e 29 89
e 29 90
e 29 91
e 29 92
e 29 93
e 29 94
e 29 95
e 29 98
e 29 103
e 29 114
e 29 115
e 29 116
e 29 125
e 29 134
e 29 138
e 29 139
e 29 140
e 29 141
e 29 150
e 30 34
e 30 43
e 30 50
e 30 57
e 30 61
e 30 63
e 30 64
e 30 66
e 30 69
e 30 71
e 30 73
e 30 79
e 30 81
e 30 87
e 30 88
e 30 89
e 30 90
e 30 93
e 30 94
e 30 95
e 30 106
e 30 108
e 30 109
e 30 119
e 30 121
e 30 124
e 30 127
e 30 129
e 30 130
e 30 141
e 30 143
e 30 144
e 31 34
e 31 37
e 31 43
e 31 47
e 31 48
e 31 51
e 31 54
e 31 57
e 31 72
e 31 73
e 31 77
e 31 78
e 31 83
e 31 87
e 31 89
e 31 92
e 31 93
e 31 94
e 31 95
e 31 102
e 31 104
e 31 107
e 31 110
e 31 117
e 31 118
e 31 119
e 31 120
e 31 121
e 31 127
e 31 128
e 31 129
e 31 132
e 31 138
e 31 140
e 31 141
e 31 143
e 31 144
e 31 147
e 32 38
e 32 46
e 32 48
e 32 52
e 32 58
e 32 59
e 32 63
e 32 64
e 32 66
e 32 70
e 32 74
e 32 77
e 32 79
e 32 81
e 32 86
e 32 88
e 32 108
e 32 109
e 32 112
e 32 113
e 32 116
e 32 120
e 32 125
e 32 128
e 32 132
e 32 134
e 32 139
e 32 140
e 33 36
e 33 39
e 33 41
e 33 51
e 33 56
e 33 60
e 33 61
e 33 63
e 33 71
e 33 74
e 33 75
e 33 77
e 33 81
e 33 86
e 33 87
e 33 95
e 33 98
e 33 99
e 33 102
e 33 104
e 33 105
e 33 107
e 33 110
e 33 112
e 33 113
e 33 115
e 33 117
e 33 118
e 33 124
e 33 125
e 33 127
e 33 128
e 33 131
e 33 133
e 33 134
e 33 135
e 33 136
e 33 137
e 33 138
e 33 144
e 33 150
e 34 36
e 34 50
e 34 51
e 34 53
e 34 58
e 34 59
e 34 60
e 34 61
e 34 62
e 34 65
e 34 66
e 34 68
e 34 71
e 34 78
e 34 81
e 34 83
e 34 84
e 34 86
e 34 99
e 34 102
e 34 108
e 34 113
e 34 117
e 34 119
e 34 120
e 34 125
e 34 128
e 34 129
e 34 131
e 34 132
e 34 134
e 34 137
e 34 138
e 34 143
e 34 145
e 34 147
e 35 37
e 35 38
e 35 41
e 35 42
e 35 53
e 35 54
e 35 55
e 35 58
e 35 61
e 35 64
e 35 67
e 35 69
e 35 70
e 35 73
e 35 74
e 35 75
e 35 79
e 35 85
e 35 88
e 35 90
e 35 92
e 35 96
e 35 97
e 35 100
e 35 104
e 35 105
e 35 108
e 35 111
e 35 112
e 35 115
e 35 119
e 35 126
e 35 129
e 35 132
e 35 133
e 35 141
e 35 142
e 35 145
e 35 146
e 36 41
e 36 45
e 36 46
e 36 48
e 36 54
e 36 55
e 36 69
e 36 72
e 36 75
e 36 76
e 36 78
e 36 79
e 36 83
e 36 86
e 36 88
e 36 95
e 36 98
e 36 103
e 36 104
e 36 105
e 36 107
e 36 109
e 36 111
e 36 112
e 36 115
e 36 121
e 36 128
e 36 129
e 36 131
e 36 135
e 36 138
e 36 139
e 36 148
e 37 40
e 37 43
e 37 44
e 37 50
e 37 52
e 37 55
e 37 57
e 37 59
e 37 64
e 37 66
e 37 70
e 37 72
e 37 78
e 37 82
e 37 86
e 37 93
e 37 95
e 37 98
e 37 100
e 37 103
e 37 105
e 37 106
e 37 108
e 37 110
e 37 116
e 37 119
e 37 121
e 37 122
e 37 126
e 37 134
e 37 138
e 37 143
e 37 145
e 37 150
e 38 40
e 38 41
e 38 43
e 38 44
e 38 46
e 38 50
e 38 56
e 38 57
e 38 64
e 38 70
e 38 71
e 38 73
e 38 75
e 38 76
e 38 78
e 38 79
e 38 84
e 38 85
e 38 94
e 38 95
e 38 101
e 38 107
e 38 111
e 38 119
e 38 121
e 38 125
e 38 132
e 38 135
e 38 138
e 38 139
e 38 141
e 38 147
e 38 150
e 39 41
e 39 42
e 39 45
e 39 49
e 39 54
e 39 57
e 39 61
e 39 68
e 39 70
e 39 72
e 39 87
e 39 90
e 39 94
e 39 95
e 39 97
e 39 102
e 39 103
e 39 113
e 39 119
e 39 121
e 39 123
e 39 127
e 39 135
e 39 140
e 39 145
e 40 41
e 40 53
e 40 54
e 40 57
e 40 60
e 40 63
e 40 64
e 40 65
e 40 77
e 40 82
e 40 83
e 40 84
e 40 90
e 40 91
e 40 93
e 40 95
e 40 99
e 40 100
e 40 104
e 40 105
e 40 107
e 40 111
e 40 116
e 40 119
e 40 124
e 40 127
e 40 135
e 40 137
e 40 140
e 40 145
e 40 146
e 40 147
e 40 150
e 41 46
e 41 49
e 41 50
e 41 54
e 41 59
e 41 60
e 41 66
e 41 71
e 41 72
e 41 76
e 41 77
e 41 79
e 41 80
e 41 85
e 41 86
e 41 96
e 41 97
e 41 99
e 41 100
e 41 103
e 41 106
e 41 109
e 41 114
e 41 117
e 41 120
e 41 121
e 41 124
e 41 125
e 41 126
e 41 134
e 41 136
e 41 144
e 41 146
e 42 43
e 42 46
e 42 48
e 42 54
e 42 56
e 42 58
e 42 59
e 42 60
e 42 62
e 42 64
e 42 65
e 42 67
e 42 69
e 42 74
e 42 79
e 42 83
e 42 84
e 42 93
e 42 96
e 42 98
e 42 104
e 42 106
e 42 109
e 42 113
e 42 114
e 42 120
e 42 126
e 42 137
e 42 143
e 42 145
e 42 148
e 42 149
e 43 46
e 43 48
e 43 49
e 43 56
e 43 58
e 43 59
e 43 61
e 43 65
e 43 74
e 43 76
e 43 78
e 43 79
e 43 85
e 43 87
e 43 88
e 43 92
e 43 93
e 43 98
e 43 100
e 43 102
e 43 103
e 43 107
e 43 108
e 43 114
e 43 119
e 43 120
e 43 125
e 43 126
e 43 130
e 43 143
e 43 148
e 43 149
e 44 45
e 44 46
e 44 52
e 44 59
e 44 61
e 44 67
e 44 69
e 44 74
e 44 75
e 44 76
e 44 78
e 44 79
e 44 82
e 44 84
e 44 87
e 44 88
e 44 92
e 44 100
e 44 104
e 44 105
e 44 109
e 44 112
e 44 117
e 44 123
e 44 126
e 44 127
e 44 128
e 44 130
e 44 132
e 44 138
e 44 141
e 44 143
e 44 144
e 44 145
e 45 46
e 45 50
e 45 51
e 45 55
e 45 56
e 45 58
e 45 61
e 45 62
e 45 71
e 45 76
e 45 78
e 45 80
e 45 81
e 45 82
e 45 83
e 45 90
e 45 96
e 45 98
e 45 100
e 45 101
e 45 102
e 45 109
e 45 116
e 45 117
e 45 120
e 45 122
e 45 124
e 45 126
e 45 127
e 45 133
e 45 135
e 45 138
e 45 139
e 45 142
e 45 148
e 45 150
e 46 48
e 46 50
e 46 57
e 46 62
e 46 65
e 46 67
e 46 68
e 46 75
e 46 80
e 46 81
e 46 82
e 46 86
e 46 95
e 46 98
e 46 99
e 46 101
e 46 106
e 46 108
e 46 112
e 46 115
e 46 123
e 46 125
e 46 126
e 46 128
e 46 145
e 46 146
e 47 48
e 47 53
e 47 66
e 47 68
e 47 72
e 47 78
e 47 86
e 47 87
e 47 92
e 47 93
e 47 96
e 47 97
e 47 100
e 47 103
e 47 106
e 47 116
e 47 119
e 47 126
e 47 134
e 47 136
e 47 144
e 48 49
e 48 53
e 48 58
e 48 60
e 48 64
e 48 65
e 48 71
e 48 75
e 48 79
e 48 81
e 48 87
e 48 89
e 48 94
e 48 98
e 48 105
e 48 106
e 48 108
e 48 111
e 48 119
e 48 120
e 48 123
e 48 124
e 48 126
e 48 127
e 48 128
e 48 136
e 48 137
e 48 140
e 48 149
e 49 57
e 49 61
e 49 62
e 49 67
e 49 68
e 49 69
e 49 71
e 49 73
e 49 76
e 49 80
e 49 85
e 49 92
e 49 93
e 49 94
e 49 97
e 49 100
e 49 102
e 49 106
e 49 108
e 49 118
e 49 119
e 49 121
e 49 122
e 49 125
e 49 126
e 49 129
e 49 135
e 49 136
e 49 138
e 49 140
e 49 149
e 50 63
e 50 66
e 50 72
e 50 76
e 50 82
e 50 91
e 50 93
e 50 95
e 50 96
e 50 99
e 50 105
e 50 108
e 50 111
e 50 113
e 50 117
e 50 119
e 50 123
e 50 124
e 50 128
e 50 130
e 50 134
e 50 138
e 50 140
e 50 144
e 50 147
e 51 60
e 51 62
e 51 63
e 51 77
e 51 79
e 51 84
e 51 87
e 51 90
e 51 93
e 51 98
e 51 100
e 51 105
e 51 116
e 51 123
e 51 124
e 51 129
e 51 132
e 51 135
e 51 138
e 51 140
e 51 143
e 51 145
e 52 59
e 52 63
e 52 65
e 52 67
e 52 72
e 52 76
e 52 84
e 52 93
e 52 94
e 52 102
e 52 107
e 52 109
e 52 110
e 52 112
e 52 113
e 52 116
e 52 118
e 52 119
e 52 120
e 52 122
e 52 126
e 52 132
e 52 134
e 52 136
e 52 144
e 53 64
e 53 69
e 53 70
e 53 72
e 53 73
e 53 79
e 53 82
e 53 83
e 53 85
e 53 91
e 53 93
e 53 94
e 53 95
e 53 96
e 53 103
e 53 104
e 53 105
e 53 108
e 53 111
e 53 117
e 53 121
e 53 125
e 53 127
e 53 128
e 53 135
e 53 141
e 53 144
e 53 146
e 53 147
e 53 150
e 54 56
e 54 59
e 54 62
e 54 65
e 54 66
e 54 68
e 54 69
e 54 76
e 54 77
e 54 79
e 54 80
e 54 81
e 54 85
e 54 89
e 54 95
e 54 97
e 54 109
e 54 110
e 54 113
e 54 116
e 54 120
e 54 124
e 54 126
e 54 129
e 54 134
e 54 136
e 54 140
e 54 141
e 54 142
e 54 150
e 55 64
e 55 75
e 55 80
e 55 83
e 55 84
e 55 86
e 55 87
e 55 90
e 55 91
e 55 95
e 55 96
e 55 106
e 55 107
e 55 109
e 55 115
e 55 116
e 55 118
e 55 122
e 55 125
e 55 131
e 55 132
e 55 133
e 55 135
e 55 140
e 55 144
e 55 145
e 56 58
e 56 71
e 56 73
e 56 74
e 56 76
e 56 81
e 56 84
e 56 86
e 56 88
e 56 94
e 56 95
e 56 96
e 56 97
e 56 108
e 56 118
e 56 124
e 56 125
e 56 127
e 56 131
e 56 135
e 56 139
e 56 142
e 56 143
e 56 148
e 57 60
e 57 62
e 57 68
e 57 71
e 57 75
e 57 77
e 57 78
e 57 79
e 57 87
e 57 92
e 57 93
e 57 102
e 57 103
e 57 104
e 57 113
e 57 114
e 57 116
e 57 118
e 57 120
e 57 123
e 57 129
e 57 132
e 57 136
e 57 137
e 57 139
e 57 141
e 57 146
e 57 148
e 57 150
e 58 61
e 58 62
e 58 66
e 58 68
e 58 75
e 58 76
e 58 80
e 58 83
e 58 84
e 58 87
e 58 100
e 58 106
e 58 110
e 58 116
e 58 117
e 58 120
e 58 121
e 58 123
e 58 125
e 58 127
e 58 132
e 58 133
e 58 136
e 58 141
e 58 143
e 58 147
e 58 148
e 59 61
e 59 62
e 59 64
e 59 68
e 59 75
e 59 78
e 59 79
e 59 81
e 59 82
e 59 83
e 59 84
e 59 85
e 59 89
e 59 93
e 59 94
e 59 95
e 59 99
e 59 107
e 59 110
e 59 115
e 59 118
e 59 120
e 59 121
e 59 122
e 59 126
e 59 130
e 59 131
e 59 132
e 59 135
e 59 136
e 59 137
e 59 139
e 59 143
e 59 147
e 59 148
e 60 61
e 60 65
e 60 69
e 60 73
e 60 76
e 60 78
e 60 79
e 60 89
e 60 100
e 60 101
e 60 103
e 60 107
e 60 108
e 60 112
e 60 125
e 60 126
e 60 127
e 60 133
e 60 134
e 60 138
e 60 142
e 60 143
e 60 145
e 61 62
e 61 68
e 61 69
e 61 72
e 61 74
e 61 75
e 61 76
e 61 77
e 61 78
e 61 80
e 61 86
e 61 88
e 61 90
e 61 91
e 61 96
e 61 99
e 61 100
e 61 102
e 61 105
e 61 106
e 61 107
e 61 110
e 61 111
e 61 112
e 61 117
e 61 119
e 61 120
e 61 122
e 61 128
e 61 130
e 61 131
e 61 132
e 61 133
e 61 134
e 61 137
e 61 140
e 61 142
e 61 145
e 61 146
e 61 147
e 61 148
e 61 150
e 62 63
e 62 66
e 62 72
e 62 73
e 62 78
e 62 83
e 62 92
e 62 94
e 62 96
e 62 98
e 62 100
e 62 101
e 62 102
e 62 104
e 62 107
e 62 109
e 62 112
e 62 113
e 62 115
e 62 117
e 62 121
e 62 124
e 62 126
e 62 127
e 62 128
e 62 129
e 62 133
e 62 135
e 62 136
e 62 141
e 62 143
e 62 144
e 62 147
e 63 68
e 63 80
e 63 82
e 63 85
e 63 88
e 63 91
e 63 94
e 63 96
e 63 99
e 63 103
e 63 105
e 63 107
e 63 110
e 63 114
e 63 116
e 63 117
e 63 124
e 63 125
e 63 126
e 63 127
e 63 130
e 63 132
e 63 133
e 63 135
e 63 137
e 63 138
e 63 140
e 63 142
e 63 147
e 63 148
e 63 149
e 63 150
e 64 65
e 64 67
e 64 68
e 64 70
e 64 77
e 64 86
e 64 90
e 64 98
e 64 100
e 64 103
e 64 108
e 64 109
e 64 111
e 64 114
e 64 122
e 64 130
e 64 135
e 64 137
e 64 142
e 64 143
e 64 145
e 64 149
e 64 150
e 65 70
e 65 71
e 65 73
e 65 77
e 65 79
e 65 81
e 65 82
e 65 84
e 65 86
e 65 87
e 65 89
e 65 94
e 65 104
e 65 111
e 65 112
e 65 113
e 65 117
e 65 118
e 65 120
e 65 125
e 65 126
e 65 130
e 65 131
e 65 133
e 65 134
e 65 140
e 65 142
e 65 144
e 66 68
e 66 74
e 66 75
e 66 83
e 66 85
e 66 87
e 66 91
e 66 92
e 66 93
e 66 97
e 66 98
e 66 99
e 66 110
e 66 111
e 66 115
e 66 117
e 66 121
e 66 124
e 66 129
e 66 138
e 66 140
e 66 141
e 66 147
e 66 148
e 67 74
e 67 75
e 67 78
e 67 79
e 67 84
e 67 86
e 67 87
e 67 90
e 67 92
e 67 93
e 67 96
e 67 97
e 67 98
e 67 99
e 67 100
e 67 104
e 67 105
e 67 107
e 67 108
e 67 109
e 67 110
e 67 119
e 67 125
e 67 126
e 67 130
e 67 134
e 67 135
e 67 140
e 67 141
e 67 142
e 67 143
e 67 145
e 67 147
e 68 69
e 68 72
e 68 77
e 68 79
e 68 81
e 68 91
e 68 93
e 68 96
e 68 99
e 68 101
e 68 103
e 68 104
e 68 107
e 68 109
e 68 112
e 68 115
e 68 116
e 68 120
e 68 126
e 68 129
e 68 130
e 68 131
e 68 133
e 68 135
e 68 143
e 68 144
e 68 149
e 69 79
e 69 80
e 69 83
e 69 84
e 69 99
e 69 101
e 69 105
e 69 110
e 69 111
e 69 113
e 69 114
e 69 117
e 69 128
e 69 132
e 69 135
e 69 138
e 69 140
e 69 142
e 69 143
e 69 144
e 69 149
e 70 71
e 70 72
e 70 76
e 70 79
e 70 81
e 70 83
e 70 86
e 70 88
e 70 90
e 70 91
e 70 93
e 70 98
e 70 100
e 70 101
e 70 102
e 70 107
e 70 109
e 70 113
e 70 115
e 70 116
e 70 122
e 70 124
e 70 128
e 70 132
e 70 134
e 70 135
e 70 138
e 70 143
e 70 148
e 71 74
e 71 75
e 71 78
e 71 81
e 71 82
e 71 83
e 71 84
e 71 88
e 71 89
e 71 90
e 71 93
e 71 96
e 71 99
e 71 101
e 71 102
e 71 120
e 71 123
e 71 125
e 71 130
e 71 132
e 71 136
e 71 137
e 71 138
e 71 139
e 71 142
e 71 143
e 71 148
e 72 73
e 72 82
e 72 83
e 72 90
e 72 93
e 72 100
e 72 102
e 72 105
e 72 107
e 72 109
e 72 110
e 72 111
e 72 112
e 72 113
e 72 114
e 72 115
e 72 124
e 72 125
e 72 126
e 72 127
e 72 133
e 72 134
e 72 140
e 72 142
e 72 143
e 72 144
e 72 146
e 72 148
e 72 150
e 73 74
e 73 77
e 73 79
e 73 84
e 73 91
e 73 97
e 73 107
e 73 111
e 73 113
e 73 114
e 73 115
e 73 119
e 73 120
e 73 123
e 73 128
e 73 131
e 73 132
e 74 76
e 74 78
e 74 80
e 74 81
e 74 82
e 74 87
e 74 89
e 74 94
e 74 102
e 74 105
e 74 114
e 74 115
e 74 130
e 74 132
e 74 133
e 74 134
e 74 136
e 74 137
e 74 138
e 74 141
e 74 142
e 74 149
e 74 150
e 75 78
e 75 79
e 75 81
e 75 82
e 75 89
e 75 98
e 75 107
e 75 109
e 75 111
e 75 113
e 75 116
e 75 124
e 75 125
e 75 131
e 75 133
e 75 134
e 75 143
e 75 147
e 76 83
e 76 86
e 76 89
e 76 94
e 76 95
e 76 96
e 76 100
e 76 105
e 76 108
e 76 110
e 76 112
e 76 113
e 76 118
e 76 124
e 76 128
e 76 133
e 76 135
e 76 138
e 76 142
e 76 144
e 77 78
e 77 83
e 77 86
e 77 89
e 77 91
e 77 92
e 77 97
e 77 98
e 77 101
e 77 108
e 77 118
e 77 123
e 77 125
e 77 126
e 77 127
e 77 129
e 77 130
e 77 131
e 77 140
e 77 145
e 77 146
e 77 148
e 78 84
e 78 86
e 78 88
e 78 89
e 78 90
e 78 94
e 78 96
e 78 98
e 78 99
e 78 105
e 78 107
e 78 112
e 78 113
e 78 117
e 78 120
e 78 121
e 78 123
e 78 124
e 78 125
e 78 131
e 78 132
e 78 139
e 78 142
e 78 145
e 78 147
e 78 148
e 79 80
e 79 81
e 79 90
e 79 94
e 79 96
e 79 98
e 79 103
e 79 109
e 79 110
e 79 111
e 79 112
e 79 117
e 79 119
e 79 122
e 79 125
e 79 128
e 79 129
e 79 134
e 79 135
e 79 143
e 79 144
e 79 147
e 79 150
e 80 83
e 80 84
e 80 87
e 80 90
e 80 91
e 80 98
e 80 100
e 80 107
e 80 108
e 80 109
e 80 110
e 80 115
e 80 116
e 80 118
e 80 120
e 80 123
e 80 124
e 80 127
e 80 128
e 80 129
e 80 130
e 80 132
e 80 135
e 80 141
e 80 142
e 80 147
e 80 149
e 81 85
e 81 86
e 81 89
e 81 90
e 81 95
e 81 96
e 81 106
e 81 108
e 81 109
e 81 111
e 81 116
e 81 117
e 81 125
e 81 126
e 81 127
e 81 132
e 81 139
e 81 141
e 81 143
e 81 147
e 81 148
e 82 83
e 82 84
e 82 86
e 82 93
e 82 95
e 82 97
e 82 99
e 82 100
e 82 101
e 82 104
e 82 106
e 82 109
e 82 110
e 82 112
e 82 114
e 82 116
e 82 121
e 82 124
e 82 126
e 82 127
e 82 133
e 82 135
e 82 141
e 82 143
e 82 144
e 82 145
e 83 100
e 83 101
e 83 103
e 83 104
e 83 105
e 83 107
e 83 109
e 83 110
e 83 111
e 83 117
e 83 118
e 83 126
e 83 132
e 83 144
e 83 145
e 84 85
e 84 90
e 84 95
e 84 98
e 84 100
e 84 104
e 84 105
e 84 109
e 84 112
e 84 117
e 84 119
e 84 120
e 84 121
e 84 127
e 84 133
e 84 136
e 84 140
e 84 141
e 84 145
e 84 148
e 85 87
e 85 88
e 85 92
e 85 93
e 85 94
e 85 99
e 85 100
e 85 102
e 85 114
e 85 115
e 85 118
e 85 123
e 85 126
e 85 128
e 85 131
e 85 132
e 85 134
e 85 140
e 85 143
e 85 148
e 86 87
e 86 93
e 86 94
e 86 95
e 86 99
e 86 100
e 86 102
e 86 103
e 86 109
e 86 118
e 86 120
e 86 126
e 86 128
e 86 131
e 86 135
e 86 136
e 86 150
e 87 88
e 87 107
e 87 110
e 87 118
e 87 124
e 87 127
e 87 130
e 87 133
e 87 134
e 87 135
e 87 136
e 87 140
e 87 142
e 87 144
e 88 89
e 88 91
e 88 94
e 88 97
e 88 100
e 88 101
e 88 106
e 88 112
e 88 117
e 88 129
e 88 141
e 88 143
e 88 144
e 88 147
e 89 98
e 89 100
e 89 101
e 89 105
e 89 109
e 89 111
e 89 123
e 89 128
e 89 130
e 89 132
e 89 140
e 89 145
e 89 148
e 90 91
e 90 93
e 90 95
e 90 96
e 90 97
e 90 106
e 90 107
e 90 111
e 90 119
e 90 126
e 90 128
e 90 137
e 90 139
e 90 141
e 90 146
e 90 148
e 90 150
e 91 92
e 91 96
e 91 99
e 91 101
e 91 103
e 91 109
e 91 113
e 91 116
e 91 120
e 91 126
e 91 129
e 91 130
e 91 134
e 91 148
e 92 94
e 92 95
e 92 96
e 92 99
e 92 100
e 92 104
e 92 109
e 92 111
e 92 113
e 92 116
e 92 121
e 92 126
e 92 131
e 92 134
e 92 147
e 92 148
e 92 150
e 93 97
e 93 99
e 93 105
e 93 106
e 93 118
e 93 119
e 93 126
e 93 132
e 93 139
e 93 144
e 94 99
e 94 100
e 94 101
e 94 104
e 94 110
e 94 115
e 94 116
e 94 123
e 94 126
e 94 129
e 94 131
e 94 133
e 94 134
e 94 138
e 94 144
e 94 146
e 94 147
e 95 100
e 95 102
e 95 103
e 95 108
e 95 110
e 95 112
e 95 122
e 95 124
e 95 133
e 95 135
e 95 137
e 95 138
e 95 140
e 95 143
e 95 144
e 95 146
e 96 97
e 96 99
e 96 100
e 96 102
e 96 103
e 96 105
e 96 113
e 96 114
e 96 116
e 96 118
e 96 121
e 96 122
e 96 125
e 96 127
e 96 137
e 96 139
e 96 140
e 96 141
e 96 148
e 96 149
e 96 150
e 97 99
e 97 100
e 97 101
e 97 102
e 97 103
e 97 104
e 97 106
e 97 108
e 97 114
e 97 118
e 97 120
e 97 122
e 97 123
e 97 125
e 97 126
e 97 131
e 97 132
e 97 133
e 97 135
e 97 136
e 97 137
e 97 139
e 97 145
e 97 149
e 98 103
e 98 105
e 98 114
e 98 116
e 98 120
e 98 122
e 98 130
e 98 132
e 98 133
e 98 134
e 98 136
e 98 138
e 98 139
e 98 149
e 99 101
e 99 103
e 99 120
e 99 121
e 99 122
e 99 128
e 99 129
e 99 130
e 99 132
e 99 133
e 99 136
e 99 138
e 99 139
e 99 141
e 99 142
e 99 146
e 99 147
e 100 103
e 100 105
e 100 110
e 100 116
e 100 125
e 100 126
e 100 127
e 100 129
e 100 135
e 100 146
e 101 106
e 101 107
e 101 108
e 101 114
e 101 118
e 101 123
e 101 124
e 101 126
e 101 131
e 101 135
e 101 136
e 101 140
e 101 141
e 102 104
e 102 106
e 102 111
e 102 113
e 102 115
e 102 116
e 102 117
e 102 121
e 102 123
e 102 127
e 102 129
e 102 131
e 102 133
e 102 134
e 102 136
e 102 137
e 102 139
e 102 142
e 102 143
e 102 147
e 102 148
e 103 128
e 103 131
e 103 132
e 103 136
e 103 139
e 103 141
e 103 142
e 103 146
e 103 149
e 103 150
e 104 105
e 104 109
e 104 112
e 104 114
e 104 124
e 104 125
e 104 127
e 104 128
e 104 129
e 104 133
e 104 134
e 104 135
e 104 137
e 104 143
e 104 144
e 104 148
e 105 108
e 105 109
e 105 113
e 105 115
e 105 116
e 105 118
e 105 119
e 105 122
e 105 123
e 105 124
e 105 126
e 105 130
e 105 133
e 105 134
e 105 138
e 105 142
e 105 143
e 105 144
e 105 145
e 105 146
e 105 147
e 106 110
e 106 114
e 106 118
e 106 119
e 106 121
e 106 126
e 106 130
e 106 135
e 106 136
e 106 139
e 106 140
e 106 142
e 106 143
e 106 144
e 106 146
e 106 148
e 107 113
e 107 114
e 107 117
e 107 122
e 107 123
e 107 124
e 107 125
e 107 143
e 107 144
e 107 146
e 107 147
e 107 149
e 108 110
e 108 111
e 108 118
e 108 123
e 108 137
e 108 140
e 108 141
e 109 112
e 109 117
e 109 120
e 109 123
e 109 126
e 109 128
e 109 130
e 109 131
e 109 135
e 109 137
e 109 138
e 109 139
e 109 141
e 109 146
e 110 112
e 110 115
e 110 118
e 110 120
e 110 122
e 110 126
e 110 131
e 110 134
e 110 137
e 110 139
e 110 144
e 110 146
e 110 149
e 111 115
e 111 118
e 111 119
e 111 121
e 111 124
e 111 130
e 111 136
e 111 141
e 111 145
e 111 148
e 111 149
e 111 150
e 112 114
e 112 121
e 112 127
e 112 130
e 112 133
e 112 136
e 112 138
e 112 140
e 112 146
e 112 150
e 113 115
e 113 121
e 113 125
e 113 130
e 113 131
e 113 135
e 113 139
e 113 141
e 113 143
e 113 147
e 113 148
e 114 118
e 114 121
e 114 137
e 114 144
e 114 147
e 115 116
e 115 117
e 115 123
e 115 124
e 115 130
e 115 132
e 115 133
e 115 134
e 115 135
e 115 141
e 115 142
e 115 143
e 115 144
e 115 145
e 115 150
e 116 117
e 116 120
e 116 124
e 116 127
e 116 134
e 116 136
e 116 138
e 116 139
e 116 141
e 116 148
e 117 119
e 117 125
e 117 127
e 117 129
e 117 133
e 117 139
e 117 140
e 117 141
e 117 145
e 117 149
e 117 150
e 118 120
e 118 125
e 118 127
e 118 129
e 118 130
e 118 140
e 118 141
e 118 143
e 118 145
e 118 148
e 118 149
e 119 121
e 119 122
e 119 127
e 119 131
e 119 134
e 119 136
e 119 137
e 119 138
e 120 121
e 120 126
e 120 133
e 120 135
e 120 136
e 120 137
e 120 141
e 120 143
e 120 145
e 120 146
e 120 148
e 121 122
e 121 124
e 121 132
e 121 134
e 121 136
e 121 137
e 121 139
e 121 140
e 121 141
e 121 143
e 121 144
e 121 149
e 122 127
e 122 130
e 122 133
e 122 139
e 122 141
e 122 147
e 122 149
e 123 127
e 123 129
e 123 132
e 123 134
e 123 135
e 123 136
e 123 137
e 123 139
e 123 146
e 124 127
e 124 129
e 124 130
e 124 134
e 124 148
e 124 149
e 124 150
e 125 127
e 125 130
e 125 132
e 125 137
e 125 141
e 125 143
e 125 149
e 126 132
e 126 136
e 126 137
e 126 139
e 126 141
e 126 142
e 126 144
e 126 147
e 126 148
e 127 129
e 127 134
e 127 135
e 127 136
e 127 139
e 128 131
e 128 138
e 128 139
e 128 145
e 129 131
e 129 135
e 129 136
e 129 137
e 129 140
e 129 145
e 129 146
e 129 150
e 130 131
e 130 132
e 130 136
e 130 139
e 130 140
e 130 144
e 131 132
e 131 138
e 131 140
e 131 142
e 131 148
e 132 138
e 132 139
e 132 140
e 132 143
e 132 144
e 132 146
e 133 138
e 133 139
e 133 143
e 133 148
e 134 135
e 134 136
e 134 138
e 134 141
e 134 145
e 134 147
e 134 149
e 135 138
e 135 139
e 135 140
e 135 144
e 135 146
e 135 147
e 136 146
e 136 149
e 136 150
e 137 142
e 137 144
e 138 144
e 138 146
e 139 142
e 139 143
e 140 141
e 140 143
e 140 149
e 141 150
e 142 144
e 142 150
e 143 147
e 144 146
e 144 147
e 145 147
e 145 148
e 146 150
e 147 148
e 148 149
e 148 150
e 149 150
